c Created with the Wolfram Language : www.wolfram.com
c 
p edge 60 362
e 1 3
e 1 4
e 4 7
e 5 7
e 6 8
e 3 9
e 4 10
e 5 10
e 5 11
e 6 12
e 4 13
e 6 13
e 10 13
e 1 14
e 5 14
e 7 14
e 9 14
e 10 14
e 12 14
e 1 15
e 6 15
e 7 15
e 11 15
e 2 16
e 3 16
e 4 16
e 6 16
e 13 16
e 3 17
e 7 17
e 9 17
e 13 17
e 3 18
e 6 18
e 11 18
e 12 18
e 15 18
e 5 19
e 1 20
e 9 20
e 15 20
e 17 20
e 18 20
e 19 20
e 2 21
e 7 21
e 9 21
e 15 21
e 17 21
e 1 22
e 2 22
e 3 22
e 10 22
e 20 22
e 2 23
e 6 23
e 10 23
e 2 24
e 6 24
e 12 24
e 17 24
e 20 24
e 23 24
e 2 25
e 11 25
e 14 25
e 15 25
e 23 25
e 1 26
e 5 26
e 14 26
e 17 26
e 19 26
e 1 27
e 5 27
e 11 27
e 14 27
e 20 27
e 26 27
e 8 28
e 19 28
e 24 28
e 25 28
e 27 28
e 8 29
e 18 29
e 23 29
e 24 29
e 26 29
e 5 30
e 7 30
e 9 30
e 16 30
e 25 30
e 26 30
e 4 31
e 5 31
e 13 31
e 16 31
e 19 31
e 23 31
e 27 31
e 1 32
e 3 32
e 5 32
e 8 32
e 18 32
e 10 33
e 20 33
e 25 33
e 28 33
e 9 34
e 14 34
e 27 34
e 29 34
e 30 34
e 3 35
e 4 35
e 7 35
e 10 35
e 11 35
e 25 35
e 31 35
e 34 35
e 5 36
e 11 36
e 33 36
e 4 37
e 5 37
e 6 37
e 13 37
e 17 37
e 20 37
e 27 37
e 35 37
e 5 38
e 9 38
e 10 38
e 29 38
e 30 38
e 32 38
e 36 38
e 37 38
e 9 39
e 10 39
e 13 39
e 15 39
e 16 39
e 18 39
e 19 39
e 20 39
e 27 39
e 31 39
e 37 39
e 38 39
e 5 40
e 9 40
e 13 40
e 17 40
e 21 40
e 30 40
e 34 40
e 3 41
e 5 41
e 7 41
e 10 41
e 12 41
e 13 41
e 28 41
e 30 41
e 39 41
e 10 42
e 12 42
e 15 42
e 18 42
e 24 42
e 29 42
e 30 42
e 7 43
e 20 43
e 22 43
e 25 43
e 28 43
e 33 43
e 35 43
e 38 43
e 5 44
e 10 44
e 12 44
e 20 44
e 25 44
e 40 44
e 42 44
e 3 45
e 11 45
e 12 45
e 15 45
e 19 45
e 22 45
e 23 45
e 24 45
e 26 45
e 40 45
e 41 45
e 44 45
e 5 46
e 6 46
e 9 46
e 15 46
e 19 46
e 22 46
e 23 46
e 30 46
e 36 46
e 43 46
e 1 47
e 3 47
e 7 47
e 12 47
e 24 47
e 29 47
e 31 47
e 37 47
e 1 48
e 9 48
e 15 48
e 17 48
e 26 48
e 31 48
e 39 48
e 40 48
e 4 49
e 6 49
e 7 49
e 19 49
e 23 49
e 25 49
e 26 49
e 28 49
e 32 49
e 40 49
e 42 49
e 45 49
e 46 49
e 3 50
e 23 50
e 25 50
e 28 50
e 37 50
e 39 50
e 40 50
e 44 50
e 48 50
e 49 50
e 5 51
e 7 51
e 8 51
e 13 51
e 17 51
e 21 51
e 26 51
e 32 51
e 46 51
e 47 51
e 50 51
e 1 52
e 11 52
e 13 52
e 32 52
e 39 52
e 40 52
e 41 52
e 42 52
e 5 53
e 9 53
e 12 53
e 14 53
e 16 53
e 35 53
e 39 53
e 46 53
e 50 53
e 5 54
e 10 54
e 15 54
e 23 54
e 35 54
e 39 54
e 44 54
e 46 54
e 48 54
e 52 54
e 2 55
e 7 55
e 11 55
e 14 55
e 16 55
e 22 55
e 32 55
e 33 55
e 42 55
e 48 55
e 50 55
e 54 55
e 1 56
e 3 56
e 9 56
e 18 56
e 20 56
e 29 56
e 31 56
e 39 56
e 41 56
e 46 56
e 47 56
e 48 56
e 49 56
e 55 56
e 2 57
e 9 57
e 13 57
e 18 57
e 20 57
e 23 57
e 27 57
e 37 57
e 44 57
e 45 57
e 46 57
e 52 57
e 3 58
e 4 58
e 5 58
e 7 58
e 12 58
e 14 58
e 15 58
e 29 58
e 34 58
e 35 58
e 37 58
e 38 58
e 46 58
e 2 59
e 7 59
e 18 59
e 21 59
e 27 59
e 29 59
e 33 59
e 39 59
e 48 59
e 10 60
e 19 60
e 21 60
e 22 60
e 26 60
e 28 60
e 34 60
e 43 60
e 47 60
e 58 60
